p cnf 412 698
-63 26 49 76 0
-63 26 49 -76 0
16 -56 35 77 0
16 -56 35 -77 0
54 71 2 78 0
54 71 2 -78 0
-63 -6 8 79 0
-63 -6 8 -79 0
-69 68 -57 80 0
-69 68 -57 -80 0
43 -65 69 81 0
43 -65 69 -81 0
-36 5 -7 82 0
-36 5 -7 -82 0
74 70 75 83 0
74 70 75 -83 0
-69 -30 18 84 0
-69 -30 18 -84 0
62 -66 -18 85 0
62 -66 -18 -85 0
5 -57 55 86 0
5 -57 55 -86 0
-57 -50 13 87 0
-57 -50 13 -87 0
-50 -68 5 88 0
-50 -68 5 -88 0
-59 -68 -2 89 0
-59 -68 -2 -89 0
-48 -57 10 90 0
-48 -57 10 -90 0
-22 21 35 91 0
-22 21 35 -91 0
41 -39 -67 92 0
41 -39 -67 -92 0
28 54 -15 93 0
28 54 -15 -93 0
19 -66 75 94 0
19 -66 75 -94 0
-52 -20 -19 95 0
-52 -20 -19 -95 0
-1 6 -35 96 0
-1 6 -35 -96 0
-38 -71 41 97 0
-38 -71 41 -97 0
-25 24 21 98 0
-25 24 21 -98 0
-70 -22 -18 99 0
-70 -22 -18 -99 0
51 -14 -74 100 0
51 -14 -74 -100 0
-38 4 65 101 0
-38 4 65 -101 0
47 38 -17 102 0
47 38 -17 -102 0
-19 60 -10 103 0
-19 60 -10 -103 0
-57 31 -62 104 0
-57 31 -62 -104 0
-54 -6 -69 105 0
-54 -6 -69 -105 0
36 5 -70 106 0
36 5 -70 -106 0
-47 -48 -34 107 0
-47 -48 -34 -107 0
-50 -3 53 108 0
-50 -3 53 -108 0
24 -44 -10 109 0
24 -44 -10 -109 0
-1 -4 -59 110 0
-1 -4 -59 -110 0
-14 -51 -46 111 0
-14 -51 -46 -111 0
-10 25 -74 112 0
-10 25 -74 -112 0
47 -12 -46 113 0
47 -12 -46 -113 0
-54 1 28 114 0
-54 1 28 -114 0
54 24 30 115 0
54 24 30 -115 0
-13 -15 52 116 0
-13 -15 52 -116 0
24 -62 -53 117 0
24 -62 -53 -117 0
-15 -31 -73 118 0
-15 -31 -73 -118 0
-43 39 -51 119 0
-43 39 -51 -119 0
-22 -5 23 120 0
-22 -5 23 -120 0
52 54 38 121 0
52 54 38 -121 0
57 60 -2 122 0
57 60 -2 -122 0
21 16 -18 123 0
21 16 -18 -123 0
-48 -40 -44 124 0
-48 -40 -44 -124 0
65 71 40 125 0
65 71 40 -125 0
-16 -51 45 126 0
-16 -51 45 -126 0
-37 -66 62 127 0
-37 -66 62 -127 0
-64 -66 25 128 0
-64 -66 25 -128 0
41 31 62 129 0
41 31 62 -129 0
73 -17 19 130 0
73 -17 19 -130 0
54 -70 -7 131 0
54 -70 -7 -131 0
51 -9 -63 132 0
51 -9 -63 -132 0
-43 40 30 133 0
-43 40 30 -133 0
-10 73 -52 134 0
-10 73 -52 -134 0
-26 -4 -15 135 0
-26 -4 -15 -135 0
1 -20 63 136 0
1 -20 63 -136 0
-5 -18 43 137 0
-5 -18 43 -137 0
-30 22 59 138 0
-30 22 59 -138 0
-5 24 14 139 0
-5 24 14 -139 0
-54 45 -23 140 0
-54 45 -23 -140 0
-62 15 -8 141 0
-62 15 -8 -141 0
-10 27 -68 142 0
-10 27 -68 -142 0
-72 49 67 143 0
-72 49 67 -143 0
71 37 -30 144 0
71 37 -30 -144 0
-29 -72 19 145 0
-29 -72 19 -145 0
-40 52 -48 146 0
-40 52 -48 -146 0
22 -36 -14 147 0
22 -36 -14 -147 0
-10 -14 -51 148 0
-10 -14 -51 -148 0
-60 8 -11 149 0
-60 8 -11 -149 0
-23 21 4 150 0
-23 21 4 -150 0
38 62 10 151 0
38 62 10 -151 0
-31 -49 -27 152 0
-31 -49 -27 -152 0
29 -72 -6 153 0
29 -72 -6 -153 0
-61 -46 58 154 0
-61 -46 58 -154 0
-57 -61 -29 155 0
-57 -61 -29 -155 0
22 -26 31 156 0
22 -26 31 -156 0
62 -13 -61 157 0
62 -13 -61 -157 0
-59 -71 58 158 0
-59 -71 58 -158 0
-49 -27 16 159 0
-49 -27 16 -159 0
27 51 52 160 0
27 51 52 -160 0
-33 56 41 161 0
-33 56 41 -161 0
23 74 18 162 0
23 74 18 -162 0
61 -13 43 163 0
61 -13 43 -163 0
50 21 -16 164 0
50 21 -16 -164 0
-46 61 16 165 0
-46 61 16 -165 0
14 1 72 166 0
14 1 72 -166 0
24 -11 19 167 0
24 -11 19 -167 0
-17 -53 -49 168 0
-17 -53 -49 -168 0
-59 -27 -63 169 0
-59 -27 -63 -169 0
-39 -17 58 170 0
-39 -17 58 -170 0
10 12 3 171 0
10 12 3 -171 0
8 -36 -26 172 0
8 -36 -26 -172 0
62 -9 42 173 0
62 -9 42 -173 0
-3 -52 47 174 0
-3 -52 47 -174 0
-64 -15 35 175 0
-64 -15 35 -175 0
-48 3 -43 176 0
-48 3 -43 -176 0
66 16 42 177 0
66 16 42 -177 0
17 -47 -64 178 0
17 -47 -64 -178 0
60 -38 -57 179 0
60 -38 -57 -179 0
-50 -15 -16 180 0
-50 -15 -16 -180 0
-45 -15 39 181 0
-45 -15 39 -181 0
69 11 -45 182 0
69 11 -45 -182 0
-63 -35 21 183 0
-63 -35 21 -183 0
42 -29 51 184 0
42 -29 51 -184 0
68 39 46 185 0
68 39 46 -185 0
72 52 32 186 0
72 52 32 -186 0
65 -23 -37 187 0
65 -23 -37 -187 0
8 44 -15 188 0
8 44 -15 -188 0
41 61 13 189 0
41 61 13 -189 0
47 1 -41 190 0
47 1 -41 -190 0
-35 -6 -23 191 0
-35 -6 -23 -191 0
-17 -30 -74 192 0
-17 -30 -74 -192 0
-33 72 -24 193 0
-33 72 -24 -193 0
-31 66 28 194 0
-31 66 28 -194 0
44 -54 -38 195 0
44 -54 -38 -195 0
56 30 52 196 0
56 30 52 -196 0
-56 37 47 197 0
-56 37 47 -197 0
-35 47 -32 198 0
-35 47 -32 -198 0
-26 49 -48 199 0
-26 49 -48 -199 0
-16 -60 32 200 0
-16 -60 32 -200 0
-24 -50 57 201 0
-24 -50 57 -201 0
-17 34 -39 202 0
-17 34 -39 -202 0
24 -47 55 203 0
24 -47 55 -203 0
57 15 -9 204 0
57 15 -9 -204 0
50 15 -19 205 0
50 15 -19 -205 0
-51 57 28 206 0
-51 57 28 -206 0
-67 68 -69 207 0
-67 68 -69 -207 0
-3 53 70 208 0
-3 53 70 -208 0
19 64 52 209 0
19 64 52 -209 0
15 74 21 210 0
15 74 21 -210 0
5 -2 -10 211 0
5 -2 -10 -211 0
-62 43 -38 212 0
-62 43 -38 -212 0
26 -21 9 213 0
26 -21 9 -213 0
-17 -33 -54 214 0
-17 -33 -54 -214 0
-39 60 26 215 0
-39 60 26 -215 0
-66 -22 -63 216 0
-66 -22 -63 -216 0
10 -29 -30 217 0
10 -29 -30 -217 0
-58 -17 -1 218 0
-58 -17 -1 -218 0
-18 61 -16 219 0
-18 61 -16 -219 0
65 -64 -39 220 0
65 -64 -39 -220 0
45 43 -73 221 0
45 43 -73 -221 0
7 -18 17 222 0
7 -18 17 -222 0
16 33 -29 223 0
16 33 -29 -223 0
74 41 58 224 0
74 41 58 -224 0
69 -26 -72 225 0
69 -26 -72 -225 0
7 -11 16 226 0
7 -11 16 -226 0
68 49 43 227 0
68 49 43 -227 0
-22 -25 -50 228 0
-22 -25 -50 -228 0
48 -40 -38 229 0
48 -40 -38 -229 0
38 47 -24 230 0
38 47 -24 -230 0
8 10 -75 231 0
8 10 -75 -231 0
49 6 15 232 0
49 6 15 -232 0
33 36 48 233 0
33 36 48 -233 0
-5 57 53 234 0
-5 57 53 -234 0
-41 50 3 235 0
-41 50 3 -235 0
53 16 39 236 0
53 16 39 -236 0
-35 -34 -28 237 0
-35 -34 -28 -237 0
10 -30 -69 238 0
10 -30 -69 -238 0
2 -21 40 239 0
2 -21 40 -239 0
-63 -55 -69 240 0
-63 -55 -69 -240 0
-11 1 -23 241 0
-11 1 -23 -241 0
62 -65 -75 242 0
62 -65 -75 -242 0
-1 -48 -11 243 0
-1 -48 -11 -243 0
66 68 -73 244 0
66 68 -73 -244 0
35 -68 29 245 0
35 -68 29 -245 0
73 -74 -15 246 0
73 -74 -15 -246 0
-63 -36 -34 247 0
-63 -36 -34 -247 0
-44 51 54 248 0
-44 51 54 -248 0
-34 29 30 249 0
-34 29 30 -249 0
-23 28 -33 250 0
-23 28 -33 -250 0
-49 -15 61 251 0
-49 -15 61 -251 0
-57 -23 -63 252 0
-57 -23 -63 -252 0
-12 48 -28 253 0
-12 48 -28 -253 0
-22 -50 -18 254 0
-22 -50 -18 -254 0
55 62 4 255 0
55 62 4 -255 0
-58 10 33 256 0
-58 10 33 -256 0
-72 60 -44 257 0
-72 60 -44 -257 0
-43 40 15 258 0
-43 40 15 -258 0
59 51 -6 259 0
59 51 -6 -259 0
-52 6 -31 260 0
-52 6 -31 -260 0
-75 3 -33 261 0
-75 3 -33 -261 0
39 66 -22 262 0
39 66 -22 -262 0
-66 59 3 263 0
-66 59 3 -263 0
-44 64 38 264 0
-44 64 38 -264 0
21 38 2 265 0
21 38 2 -265 0
37 -33 34 266 0
37 -33 34 -266 0
-43 -30 33 267 0
-43 -30 33 -267 0
-57 -32 -23 268 0
-57 -32 -23 -268 0
-11 -34 18 269 0
-11 -34 18 -269 0
1 69 63 270 0
1 69 63 -270 0
3 -68 51 271 0
3 -68 51 -271 0
47 40 44 272 0
47 40 44 -272 0
-24 -11 49 273 0
-24 -11 49 -273 0
-26 -63 52 274 0
-26 -63 52 -274 0
-69 -43 -20 275 0
-69 -43 -20 -275 0
-75 46 -43 276 0
-75 46 -43 -276 0
64 -53 4 277 0
64 -53 4 -277 0
49 -5 44 278 0
49 -5 44 -278 0
41 -2 -9 279 0
41 -2 -9 -279 0
-43 39 -18 280 0
-43 39 -18 -280 0
37 -20 -33 281 0
37 -20 -33 -281 0
-44 59 -16 282 0
-44 59 -16 -282 0
-5 64 -1 283 0
-5 64 -1 -283 0
69 -51 53 284 0
69 -51 53 -284 0
-53 37 62 285 0
-53 37 62 -285 0
57 -60 27 286 0
57 -60 27 -286 0
-53 33 5 287 0
-53 33 5 -287 0
-66 -10 9 288 0
-66 -10 9 -288 0
43 -51 -70 289 0
43 -51 -70 -289 0
43 30 -24 290 0
43 30 -24 -290 0
-36 7 32 291 0
-36 7 32 -291 0
8 -74 -54 292 0
8 -74 -54 -292 0
-33 -58 -68 293 0
-33 -58 -68 -293 0
-59 17 25 294 0
-59 17 25 -294 0
-41 4 -32 295 0
-41 4 -32 -295 0
-37 -68 64 296 0
-37 -68 64 -296 0
-14 -63 9 297 0
-14 -63 9 -297 0
-51 -32 59 298 0
-51 -32 59 -298 0
-17 57 50 299 0
-17 57 50 -299 0
-43 -1 -16 300 0
-43 -1 -16 -300 0
-57 27 40 301 0
-57 27 40 -301 0
-55 33 7 302 0
-55 33 7 -302 0
-64 -75 38 303 0
-64 -75 38 -303 0
-5 59 -17 304 0
-5 59 -17 -304 0
65 -68 -51 305 0
65 -68 -51 -305 0
53 49 68 306 0
53 49 68 -306 0
-37 -74 -45 307 0
-37 -74 -45 -307 0
49 51 69 308 0
49 51 69 -308 0
-47 27 -19 309 0
-47 27 -19 -309 0
39 -70 35 310 0
39 -70 35 -310 0
-55 -52 1 311 0
-55 -52 1 -311 0
59 -30 19 312 0
59 -30 19 -312 0
21 -47 56 313 0
21 -47 56 -313 0
-50 29 28 314 0
-50 29 28 -314 0
-35 -55 28 315 0
-35 -55 28 -315 0
21 48 -3 316 0
21 48 -3 -316 0
-40 4 27 317 0
-40 4 27 -317 0
-63 -52 -70 318 0
-63 -52 -70 -318 0
-45 40 7 319 0
-45 40 7 -319 0
-31 -67 -3 320 0
-31 -67 -3 -320 0
9 7 -44 321 0
9 7 -44 -321 0
-8 67 -35 322 0
-8 67 -35 -322 0
38 -74 53 323 0
38 -74 53 -323 0
-51 -28 -37 324 0
-51 -28 -37 -324 0
-4 51 -62 325 0
-4 51 -62 -325 0
70 -42 26 326 0
70 -42 26 -326 0
-15 61 6 327 0
-15 61 6 -327 0
32 72 26 328 0
32 72 26 -328 0
40 53 42 329 0
40 53 42 -329 0
-60 30 1 330 0
-60 30 1 -330 0
-28 10 -4 331 0
-28 10 -4 -331 0
-67 31 57 332 0
-67 31 57 -332 0
-25 -35 14 333 0
-25 -35 14 -333 0
64 8 69 334 0
64 8 69 -334 0
-55 -68 -49 335 0
-55 -68 -49 -335 0
17 -65 74 336 0
17 -65 74 -336 0
-16 35 -45 337 0
-16 35 -45 -337 0
14 57 -8 338 0
14 57 -8 -338 0
43 -21 -60 339 0
43 -21 -60 -339 0
56 31 60 340 0
56 31 60 -340 0
17 -27 -12 341 0
17 -27 -12 -341 0
-30 -62 -15 342 0
-30 -62 -15 -342 0
-48 73 -28 343 0
-48 73 -28 -343 0
32 68 -5 344 0
32 68 -5 -344 0
9 11 68 345 0
9 11 68 -345 0
-54 47 27 346 0
-54 47 27 -346 0
24 -5 -21 347 0
24 -5 -21 -347 0
-70 62 19 348 0
-70 62 19 -348 0
7 5 -9 349 0
7 5 -9 -349 0
31 42 74 350 0
31 42 74 -350 0
-39 -58 66 351 0
-39 -58 66 -351 0
71 74 13 352 0
71 74 13 -352 0
8 -16 -63 353 0
8 -16 -63 -353 0
30 72 3 354 0
30 72 3 -354 0
26 -50 3 355 0
26 -50 3 -355 0
44 37 -63 356 0
44 37 -63 -356 0
-43 -23 -38 357 0
-43 -23 -38 -357 0
-56 -46 -74 358 0
-56 -46 -74 -358 0
-43 -26 61 359 0
-43 -26 61 -359 0
6 -14 -54 360 0
6 -14 -54 -360 0
14 -7 -13 361 0
14 -7 -13 -361 0
40 -8 62 362 0
40 -8 62 -362 0
-61 44 -71 363 0
-61 44 -71 -363 0
48 54 18 364 0
48 54 18 -364 0
37 29 -20 365 0
37 29 -20 -365 0
67 -50 64 366 0
67 -50 64 -366 0
44 15 37 367 0
44 15 37 -367 0
-56 -2 67 368 0
-56 -2 67 -368 0
-44 -34 57 369 0
-44 -34 57 -369 0
67 -28 -33 370 0
67 -28 -33 -370 0
-69 -35 44 371 0
-69 -35 44 -371 0
-12 -9 -35 372 0
-12 -9 -35 -372 0
-71 -20 -53 373 0
-71 -20 -53 -373 0
-65 40 -72 374 0
-65 40 -72 -374 0
51 17 -16 375 0
51 17 -16 -375 0
-3 22 -19 376 0
-3 22 -19 -376 0
-66 16 25 377 0
-66 16 25 -377 0
-59 -50 54 378 0
-59 -50 54 -378 0
35 10 14 379 0
35 10 14 -379 0
-56 51 17 380 0
-56 51 17 -380 0
67 26 19 381 0
67 26 19 -381 0
-28 45 67 382 0
-28 45 67 -382 0
54 -16 -71 383 0
54 -16 -71 -383 0
-48 21 50 384 0
-48 21 50 -384 0
62 -7 -60 385 0
62 -7 -60 -385 0
4 63 -14 386 0
4 63 -14 -386 0
24 52 -13 387 0
24 52 -13 -387 0
37 -8 -60 388 0
37 -8 -60 -388 0
-74 -12 65 389 0
-74 -12 65 -389 0
-58 -60 23 390 0
-58 -60 23 -390 0
-30 67 6 391 0
-30 67 6 -391 0
12 -38 7 392 0
12 -38 7 -392 0
-68 -15 44 393 0
-68 -15 44 -393 0
22 46 19 394 0
22 46 19 -394 0
-28 -1 -50 395 0
-28 -1 -50 -395 0
-73 -56 75 396 0
-73 -56 75 -396 0
52 33 -36 397 0
52 33 -36 -397 0
-69 -24 -41 398 0
-69 -24 -41 -398 0
68 -41 67 399 0
68 -41 67 -399 0
31 60 -9 400 0
31 60 -9 -400 0
401 402 403 404 0
401 402 403 -404 0
401 402 -403 404 0
401 402 -403 -404 0
401 -402 403 404 0
401 -402 403 -404 0
401 -402 -403 404 0
401 -402 -403 -404 0
-401 402 403 404 0
-401 402 403 -404 0
-401 402 -403 404 0
-401 402 -403 -404 0
-401 -402 403 404 0
-401 -402 403 -404 0
-401 -402 -403 404 0
-401 -402 -403 -404 0
405 406 407 408 0
405 406 407 -408 0
405 406 -407 408 0
405 406 -407 -408 0
405 -406 407 408 0
405 -406 407 -408 0
405 -406 -407 408 0
405 -406 -407 -408 0
-405 406 407 408 0
-405 406 407 -408 0
-405 406 -407 408 0
-405 406 -407 -408 0
-405 -406 407 408 0
-405 -406 407 -408 0
-405 -406 -407 408 0
-405 -406 -407 -408 0
409 410 411 412 0
409 410 411 -412 0
409 410 -411 412 0
409 410 -411 -412 0
409 -410 411 412 0
409 -410 411 -412 0
409 -410 -411 412 0
409 -410 -411 -412 0
-409 410 411 412 0
-409 410 411 -412 0
-409 410 -411 412 0
-409 410 -411 -412 0
-409 -410 411 412 0
-409 -410 411 -412 0
-409 -410 -411 412 0
-409 -410 -411 -412 0
